(set-info :smt-lib-version 2.6)
(set-info :category "crafted")
(set-logic QF_FF)
(define-sort FF0 () (_ FiniteField 52435875175126190479447740508185965837690552500527637822603658699938581184513))
(declare-fun return_n10_alt () FF0)
(declare-fun k_n3_alt () FF0)
(declare-fun is_zero_n14_alt () FF0)
(declare-fun h_n9_alt () FF0)
(declare-fun i_n7_alt () FF0)
(declare-fun f_n2_alt () FF0)
(declare-fun j_n5_alt () FF0)
(declare-fun c_n8_alt () FF0)
(declare-fun is_zero_inv_n15_alt () FF0)
(declare-fun a_n12_alt () FF0)
(declare-fun d_n6_alt () FF0)
(declare-fun l_n1_alt () FF0)
(declare-fun e_n4_alt () FF0)
(declare-fun b_n11_alt () FF0)
(declare-fun g_n0_alt () FF0)
(declare-fun is_zero_inv_n13_alt () FF0)
(declare-fun return_n10 () FF0)
(declare-fun k_n3 () FF0)
(declare-fun is_zero_n14 () FF0)
(declare-fun h_n9 () FF0)
(declare-fun i_n7 () FF0)
(declare-fun f_n2 () FF0)
(declare-fun j_n5 () FF0)
(declare-fun c_n8 () FF0)
(declare-fun is_zero_inv_n15 () FF0)
(declare-fun a_n12 () FF0)
(declare-fun d_n6 () FF0)
(declare-fun l_n1 () FF0)
(declare-fun e_n4 () FF0)
(declare-fun b_n11 () FF0)
(declare-fun g_n0 () FF0)
(declare-fun is_zero_inv_n13 () FF0)
(assert 
  (let ((let0 (as ff1 FF0)))
  (let ((let1 (as ff52435875175126190479447740508185965837690552500527637822603658699938581184512 FF0)))
  (let ((let2 return_n10_alt))
  (let ((let3 (ff.mul let2 let1)))
  (let ((let4 (ff.add let3 let0)))
  (let ((let5 (as ff7 FF0)))
  (let ((let6 k_n3_alt))
  (let ((let7 (ff.mul let6 let1)))
  (let ((let8 is_zero_n14_alt))
  (let ((let9 (ff.mul let8 let1)))
  (let ((let10 h_n9_alt))
  (let ((let11 (ff.mul let10 let1)))
  (let ((let12 i_n7_alt))
  (let ((let13 (ff.mul let12 let1)))
  (let ((let14 f_n2_alt))
  (let ((let15 (ff.mul let14 let1)))
  (let ((let16 j_n5_alt))
  (let ((let17 (ff.mul let16 let1)))
  (let ((let18 c_n8_alt))
  (let ((let19 (ff.mul let18 let1)))
  (let ((let20 (ff.add let19 let17 let15 let13 let11 let9 let7 let5)))
  (let ((let21 is_zero_inv_n15_alt))
  (let ((let22 (ff.mul let21 let20)))
  (let ((let23 (= let22 let4)))
  (let ((let24 (as ff0 FF0)))
  (let ((let25 (as ff6 FF0)))
  (let ((let26 a_n12_alt))
  (let ((let27 (ff.mul let26 let1)))
  (let ((let28 d_n6_alt))
  (let ((let29 (ff.mul let28 let1)))
  (let ((let30 l_n1_alt))
  (let ((let31 (ff.mul let30 let1)))
  (let ((let32 e_n4_alt))
  (let ((let33 (ff.mul let32 let1)))
  (let ((let34 b_n11_alt))
  (let ((let35 (ff.mul let34 let1)))
  (let ((let36 g_n0_alt))
  (let ((let37 (ff.mul let36 let1)))
  (let ((let38 (ff.add let37 let35 let33 let31 let29 let27 let25)))
  (let ((let39 (ff.mul let8 let38)))
  (let ((let40 (= let39 let24)))
  (let ((let41 (ff.add let9 let0)))
  (let ((let42 is_zero_inv_n13_alt))
  (let ((let43 (ff.mul let42 let38)))
  (let ((let44 (= let43 let41)))
  (let ((let45 (and let44 let40 let23)))
  (let ((let46 return_n10))
  (let ((let47 (ff.mul let46 let1)))
  (let ((let48 (ff.add let47 let0)))
  (let ((let49 k_n3))
  (let ((let50 (ff.mul let49 let1)))
  (let ((let51 is_zero_n14))
  (let ((let52 (ff.mul let51 let1)))
  (let ((let53 h_n9))
  (let ((let54 (ff.mul let53 let1)))
  (let ((let55 i_n7))
  (let ((let56 (ff.mul let55 let1)))
  (let ((let57 f_n2))
  (let ((let58 (ff.mul let57 let1)))
  (let ((let59 j_n5))
  (let ((let60 (ff.mul let59 let1)))
  (let ((let61 c_n8))
  (let ((let62 (ff.mul let61 let1)))
  (let ((let63 (ff.add let62 let60 let58 let56 let54 let52 let50 let5)))
  (let ((let64 is_zero_inv_n15))
  (let ((let65 (ff.mul let64 let63)))
  (let ((let66 (= let65 let48)))
  (let ((let67 a_n12))
  (let ((let68 (ff.mul let67 let1)))
  (let ((let69 d_n6))
  (let ((let70 (ff.mul let69 let1)))
  (let ((let71 l_n1))
  (let ((let72 (ff.mul let71 let1)))
  (let ((let73 e_n4))
  (let ((let74 (ff.mul let73 let1)))
  (let ((let75 b_n11))
  (let ((let76 (ff.mul let75 let1)))
  (let ((let77 g_n0))
  (let ((let78 (ff.mul let77 let1)))
  (let ((let79 (ff.add let78 let76 let74 let72 let70 let68 let25)))
  (let ((let80 (ff.mul let51 let79)))
  (let ((let81 (= let80 let24)))
  (let ((let82 (ff.add let52 let0)))
  (let ((let83 is_zero_inv_n13))
  (let ((let84 (ff.mul let83 let79)))
  (let ((let85 (= let84 let82)))
  (let ((let86 (and let85 let81 let66)))
  (let ((let87 (= let46 let2)))
  (let ((let88 (not let87)))
  (let ((let89 (= let55 let12)))
  (let ((let90 (= let71 let30)))
  (let ((let91 (= let69 let28)))
  (let ((let92 (= let59 let16)))
  (let ((let93 (= let61 let18)))
  (let ((let94 (= let67 let26)))
  (let ((let95 (= let49 let6)))
  (let ((let96 (= let73 let32)))
  (let ((let97 (= let53 let10)))
  (let ((let98 (= let57 let14)))
  (let ((let99 (= let75 let34)))
  (let ((let100 (= let77 let36)))
  (let ((let101 (and let100 let99 let98 let97 let96 let95 let94 let93 let92 let91 let90 let89)))
  (let ((let102 (and let101 let88 let86 let45)))
  let102
)))))))))))))))))))))))))))))))))))))))))))))))))))))))))))))))))))))))))))))))))))))))))))))))))))))))
)
(check-sat)
